 vasp                                   
   1.00000000000000     
     8.1082507785264930    0.0000000000000000    0.0000000000000000
     0.0000000000000000    8.2146273664253293    0.0000000000000000
     0.0000000000000000    0.0000000000000000    8.4095538670372658
   Ba   K    Ni   Nb   O 
     4     4     2     6    23
Direct
  0.9894249962163073  0.9773258384044681  0.0175104236160166
  0.5105750037836927  0.5226741615955319  0.0175104236160166
  0.5105750037836927  0.9773258384044681  0.0175104236160166
  0.9894249962163073  0.5226741615955319  0.0175104236160166
  0.9898953830415778  0.9760838038253610  0.5069326016919362
  0.5101046169584222  0.5239161961746390  0.5069326016919362
  0.5101046169584222  0.9760838038253610  0.5069326016919362
  0.9898953830415778  0.5239161961746390  0.5069326016919362
  0.2500000000000000  0.7500000000000000  0.7729612561726498
  0.7500000000000000  0.7500000000000000  0.2742184704863675
  0.2500000000000000  0.2500000000000000  0.2880174318054713
  0.2500000000000000  0.2500000000000000  0.7428411141321902
  0.2500000000000000  0.7500000000000000  0.2742659951666937
  0.7500000000000000  0.2500000000000000  0.2458257828628376
  0.7500000000000000  0.2500000000000000  0.7345373270192539
  0.7500000000000000  0.7500000000000000  0.7504383332980069
  0.2500000000000000  0.2500000000000000  0.5112312486691764
  0.2500000000000000  0.7500000000000000  0.0288814954083350
  0.7500000000000000  0.2500000000000000  0.0142496564594197
  0.2500000000000000  0.7500000000000000  0.5032462432557310
  0.7500000000000000  0.2500000000000000  0.5099193650840022
  0.7500000000000000  0.7500000000000000  0.9990149489843390
  0.7500000000000000  0.7500000000000000  0.5249754542183638
  0.2500000000000000  0.0129804518854897  0.2569997171440548
  0.2500000000000000  0.4870195481145103  0.2569997171440548
  0.4872652702551932  0.2500000000000000  0.2353254307815931
  0.0127347297448068  0.2500000000000000  0.2353254307815931
  0.2500000000000000  0.0459751844919936  0.8379890215419650
  0.2500000000000000  0.4540248155080064  0.8379890215419650
  0.5004184437099823  0.2500000000000000  0.7512668976646282
  0.9995815562900177  0.2500000000000000  0.7512668976646282
  0.7500000000000000  0.0160997443885975  0.2636692242471810
  0.7500000000000000  0.4839002556114025  0.2636692242471810
  0.4918914221310047  0.7500000000000000  0.2600162835151991
  0.0081085778689953  0.7500000000000000  0.2600162835151991
  0.7500000000000000  0.0080753629899846  0.7634288832748553
  0.7500000000000000  0.4919246370100154  0.7634288832748553
  0.5048812655452082  0.7500000000000000  0.7683349297032009
  0.9951187344547918  0.7500000000000000  0.7683349297032009
 
  0.00000000E+00  0.00000000E+00  0.00000000E+00
  0.00000000E+00  0.00000000E+00  0.00000000E+00
  0.00000000E+00  0.00000000E+00  0.00000000E+00
  0.00000000E+00  0.00000000E+00  0.00000000E+00
  0.00000000E+00  0.00000000E+00  0.00000000E+00
  0.00000000E+00  0.00000000E+00  0.00000000E+00
  0.00000000E+00  0.00000000E+00  0.00000000E+00
  0.00000000E+00  0.00000000E+00  0.00000000E+00
  0.00000000E+00  0.00000000E+00  0.00000000E+00
  0.00000000E+00  0.00000000E+00  0.00000000E+00
  0.00000000E+00  0.00000000E+00  0.00000000E+00
  0.00000000E+00  0.00000000E+00  0.00000000E+00
  0.00000000E+00  0.00000000E+00  0.00000000E+00
  0.00000000E+00  0.00000000E+00  0.00000000E+00
  0.00000000E+00  0.00000000E+00  0.00000000E+00
  0.00000000E+00  0.00000000E+00  0.00000000E+00
  0.00000000E+00  0.00000000E+00  0.00000000E+00
  0.00000000E+00  0.00000000E+00  0.00000000E+00
  0.00000000E+00  0.00000000E+00  0.00000000E+00
  0.00000000E+00  0.00000000E+00  0.00000000E+00
  0.00000000E+00  0.00000000E+00  0.00000000E+00
  0.00000000E+00  0.00000000E+00  0.00000000E+00
  0.00000000E+00  0.00000000E+00  0.00000000E+00
  0.00000000E+00  0.00000000E+00  0.00000000E+00
  0.00000000E+00  0.00000000E+00  0.00000000E+00
  0.00000000E+00  0.00000000E+00  0.00000000E+00
  0.00000000E+00  0.00000000E+00  0.00000000E+00
  0.00000000E+00  0.00000000E+00  0.00000000E+00
  0.00000000E+00  0.00000000E+00  0.00000000E+00
  0.00000000E+00  0.00000000E+00  0.00000000E+00
  0.00000000E+00  0.00000000E+00  0.00000000E+00
  0.00000000E+00  0.00000000E+00  0.00000000E+00
  0.00000000E+00  0.00000000E+00  0.00000000E+00
  0.00000000E+00  0.00000000E+00  0.00000000E+00
  0.00000000E+00  0.00000000E+00  0.00000000E+00
  0.00000000E+00  0.00000000E+00  0.00000000E+00
  0.00000000E+00  0.00000000E+00  0.00000000E+00
  0.00000000E+00  0.00000000E+00  0.00000000E+00
  0.00000000E+00  0.00000000E+00  0.00000000E+00
