 vasp           
 1.00000000
  8.049650    0.000000    0.000000
  0.000000    8.049650    0.000000
  0.000000    0.000000    8.220892
Ba K Ni Nb O
4 4 2 6 23
 Direct
  0.000000    0.000000    0.008874
  0.500000    0.000000    0.008874
  0.500000    0.500000    0.008874
  0.000000    0.500000    0.508874
  0.000000    0.500000    0.008874
  0.000000    0.000000    0.508874
  0.500000    0.000000    0.508874
  0.500000    0.500000    0.508874
  0.250000    0.250000    0.751958
  0.750000    0.750000    0.751958
  0.250000    0.250000    0.251958
  0.250000    0.750000    0.251958
  0.750000    0.250000    0.251958
  0.250000    0.750000    0.751958
  0.750000    0.250000    0.751958
  0.750000    0.750000    0.251958
  0.250000    0.250000    0.521551
  0.250000    0.750000    0.021551
  0.750000    0.250000    0.021551
  0.250000    0.750000    0.521551
  0.750000    0.250000    0.521551
  0.750000    0.750000    0.021551
  0.750000    0.750000    0.521551
  0.250000    0.000000    0.269309
  0.500000    0.250000    0.269309
  0.250000    0.500000    0.269309
  0.000000    0.250000    0.269309
  0.250000    0.000000    0.769309
  0.500000    0.250000    0.769309
  0.250000    0.500000    0.769309
  0.000000    0.250000    0.769309
  0.750000    0.000000    0.269309
  0.500000    0.750000    0.269309
  0.750000    0.500000    0.269309
  0.000000    0.750000    0.269309
  0.750000    0.000000    0.769309
  0.500000    0.750000    0.769309
  0.750000    0.500000    0.769309
  0.000000    0.750000    0.769309
