 vasp                                   
   1.00000000000000     
     8.1310157063917163    0.0004035445392916   -0.0021645460689132
     0.0004035445392916    8.1310157063917163    0.0021645460689132
    -0.0021893605752902    0.0021893605752902    8.3034311743868354
   Ba   K    Ni   Nb   O 
     4     4     2     6    23
Direct
  0.9915587303191842  0.9885174418156168  0.9921806613349986
  0.5077508230206220  0.9922491769793780  0.9956506730572698
  0.5114825581843760  0.5084412696808158  0.9921806613349986
  0.9919855277372704  0.5080144722627296  0.5361889689184807
  0.9916816277015883  0.5083183722984117  0.9973258585706688
  0.9926925899298809  0.9941817664322130  0.5287411587134088
  0.5089109216550298  0.9910890783449702  0.5300273474864525
  0.5058182335677870  0.5073074100701191  0.5287411587134088
  0.2504391691654391  0.2495608308345609  0.7511086068409227
  0.7501040801868726  0.7498959198131274  0.7600654298878027
  0.2544970522626642  0.2455029477373358  0.2962151423588040
  0.2475879300035189  0.7434617220858044  0.2590781487497509
  0.7565382779141956  0.2524120699964811  0.2590781487497509
  0.2512331571907325  0.7507262377217003  0.7520827699495953
  0.7492737622782997  0.2487668428092675  0.7520827699495953
  0.7469922715255635  0.7530077284744365  0.2710432312028885
  0.2536820419993759  0.2463179580006241  0.5126066672900436
  0.2519281063931658  0.7487687176298579  0.0256459661106376
  0.7512312823701421  0.2480718936068342  0.0256459661106376
  0.2486111908226150  0.7505522619559741  0.5065627149983030
  0.7494477380440259  0.2513888091773850  0.5065627149983030
  0.7471233115828610  0.7528766884171390  0.0322689018437998
  0.7533209390244622  0.7466790609755378  0.5004988471402854
  0.2476522886926489  0.0098122455454401  0.2456844418996269
  0.4901877544545599  0.2523477113073440  0.2456844418996269
  0.2478795060369876  0.4944629921503534  0.2569053841781042
  0.0055370078496466  0.2521204939630124  0.2569053841781042
  0.2500672526594983  0.9945548761287313  0.7835858447677637
  0.5054451238712687  0.2499327473405017  0.7835858447677637
  0.2503497563114223  0.5068715853685148  0.7694408734705078
  0.9931284146314852  0.2496502436885777  0.7694408734705078
  0.7485275902578081  0.0042950934708301  0.2643926680093003
  0.4957049065291699  0.7514724097421919  0.2643926680093003
  0.7486819499946833  0.4963293934531094  0.2654658852286076
  0.0036706065468906  0.7513180500053167  0.2654658852286076
  0.7489793500806030  0.0086723621284008  0.7693061017624458
  0.4913276378715992  0.7510206499193970  0.7693061017624458
  0.7493058648244642  0.4903363334924080  0.7626560435282386
  0.0096636665075920  0.7506941351755358  0.7626560435282386
 
  0.00000000E+00  0.00000000E+00  0.00000000E+00
  0.00000000E+00  0.00000000E+00  0.00000000E+00
  0.00000000E+00  0.00000000E+00  0.00000000E+00
  0.00000000E+00  0.00000000E+00  0.00000000E+00
  0.00000000E+00  0.00000000E+00  0.00000000E+00
  0.00000000E+00  0.00000000E+00  0.00000000E+00
  0.00000000E+00  0.00000000E+00  0.00000000E+00
  0.00000000E+00  0.00000000E+00  0.00000000E+00
  0.00000000E+00  0.00000000E+00  0.00000000E+00
  0.00000000E+00  0.00000000E+00  0.00000000E+00
  0.00000000E+00  0.00000000E+00  0.00000000E+00
  0.00000000E+00  0.00000000E+00  0.00000000E+00
  0.00000000E+00  0.00000000E+00  0.00000000E+00
  0.00000000E+00  0.00000000E+00  0.00000000E+00
  0.00000000E+00  0.00000000E+00  0.00000000E+00
  0.00000000E+00  0.00000000E+00  0.00000000E+00
  0.00000000E+00  0.00000000E+00  0.00000000E+00
  0.00000000E+00  0.00000000E+00  0.00000000E+00
  0.00000000E+00  0.00000000E+00  0.00000000E+00
  0.00000000E+00  0.00000000E+00  0.00000000E+00
  0.00000000E+00  0.00000000E+00  0.00000000E+00
  0.00000000E+00  0.00000000E+00  0.00000000E+00
  0.00000000E+00  0.00000000E+00  0.00000000E+00
  0.00000000E+00  0.00000000E+00  0.00000000E+00
  0.00000000E+00  0.00000000E+00  0.00000000E+00
  0.00000000E+00  0.00000000E+00  0.00000000E+00
  0.00000000E+00  0.00000000E+00  0.00000000E+00
  0.00000000E+00  0.00000000E+00  0.00000000E+00
  0.00000000E+00  0.00000000E+00  0.00000000E+00
  0.00000000E+00  0.00000000E+00  0.00000000E+00
  0.00000000E+00  0.00000000E+00  0.00000000E+00
  0.00000000E+00  0.00000000E+00  0.00000000E+00
  0.00000000E+00  0.00000000E+00  0.00000000E+00
  0.00000000E+00  0.00000000E+00  0.00000000E+00
  0.00000000E+00  0.00000000E+00  0.00000000E+00
  0.00000000E+00  0.00000000E+00  0.00000000E+00
  0.00000000E+00  0.00000000E+00  0.00000000E+00
  0.00000000E+00  0.00000000E+00  0.00000000E+00
  0.00000000E+00  0.00000000E+00  0.00000000E+00
