 vasp                                   
   1.00000000000000     
     8.1310157063917163    0.0004035445392916   -0.0021645460689132
     0.0004035445392916    8.1310157063917163    0.0021645460689132
    -0.0021893605752902    0.0021893605752902    8.3034311743868354
   Ba   K    Ni   Nb   O 
     4     4     2     6    23
Direct
 -0.0084412696808144 -0.0114825581843796 -0.0078193386650002
  0.5077508230206252 -0.0077508230206243 -0.0043493269427327
  0.5114825581843793  0.5084412696808140 -0.0078193386650002
 -0.0080144722627283  0.5080144722627291  0.5361889689184833
 -0.0083183722984132  0.5083183722984136 -0.0026741414293337
 -0.0073074100701192 -0.0058182335677842  0.5287411587134085
  0.5089109216550280 -0.0089109216550288  0.5300273474864550
  0.5058182335677845  0.5073074100701196  0.5287411587134085
  0.2504391691654367  0.2495608308345634  0.7511086068409238
  0.7501040801868736  0.7498959198131264  0.7600654298878062
  0.2544970522626608  0.2455029477373390  0.2962151423588054
  0.2475879300035156  0.7434617220858057  0.2590781487497522
  0.7565382779141943  0.2524120699964845  0.2590781487497522
  0.2512331571907331  0.7507262377217001  0.7520827699495979
  0.7492737622782999  0.2487668428092672  0.7520827699495979
  0.7469922715255655  0.7530077284744345  0.2710432312028897
  0.2536820419993789  0.2463179580006211  0.5126066672900466
  0.2519281063931675  0.7487687176298543  0.0256459661106394
  0.7512312823701457  0.2480718936068328  0.0256459661106394
  0.2486111908226134  0.7505522619559771  0.5065627149983043
  0.7494477380440229  0.2513888091773861  0.5065627149983043
  0.7471233115828644  0.7528766884171356  0.0322689018437970
  0.7533209390244646  0.7466790609755354  0.5004988471402869
  0.2476522886926522  0.0098122455454412  0.2456844418996290
  0.4901877544545588  0.2523477113073475  0.2456844418996290
  0.2478795060369857  0.4944629921503554  0.2569053841781070
  0.0055370078496447  0.2521204939630144  0.2569053841781070
  0.2500672526594986 -0.0054451238712654  0.7835858447677625
  0.5054451238712654  0.2499327473405011  0.7835858447677625
  0.2503497563114200  0.5068715853685166  0.7694408734705045
 -0.0068715853685169  0.2496502436885797  0.7694408734705045
  0.7485275902578080  0.0042950934708328  0.2643926680092993
  0.4957049065291674  0.7514724097421920  0.2643926680092993
  0.7486819499946856  0.4963293934531119  0.2654658852286045
  0.0036706065468883  0.7513180500053144  0.2654658852286045
  0.7489793500806042  0.0086723621284015  0.7693061017624460
  0.4913276378715983  0.7510206499193958  0.7693061017624460
  0.7493058648244666  0.4903363334924072  0.7626560435282416
  0.0096636665075929  0.7506941351755334  0.7626560435282416
 
  0.00000000E+00  0.00000000E+00  0.00000000E+00
  0.00000000E+00  0.00000000E+00  0.00000000E+00
  0.00000000E+00  0.00000000E+00  0.00000000E+00
  0.00000000E+00  0.00000000E+00  0.00000000E+00
  0.00000000E+00  0.00000000E+00  0.00000000E+00
  0.00000000E+00  0.00000000E+00  0.00000000E+00
  0.00000000E+00  0.00000000E+00  0.00000000E+00
  0.00000000E+00  0.00000000E+00  0.00000000E+00
  0.00000000E+00  0.00000000E+00  0.00000000E+00
  0.00000000E+00  0.00000000E+00  0.00000000E+00
  0.00000000E+00  0.00000000E+00  0.00000000E+00
  0.00000000E+00  0.00000000E+00  0.00000000E+00
  0.00000000E+00  0.00000000E+00  0.00000000E+00
  0.00000000E+00  0.00000000E+00  0.00000000E+00
  0.00000000E+00  0.00000000E+00  0.00000000E+00
  0.00000000E+00  0.00000000E+00  0.00000000E+00
  0.00000000E+00  0.00000000E+00  0.00000000E+00
  0.00000000E+00  0.00000000E+00  0.00000000E+00
  0.00000000E+00  0.00000000E+00  0.00000000E+00
  0.00000000E+00  0.00000000E+00  0.00000000E+00
  0.00000000E+00  0.00000000E+00  0.00000000E+00
  0.00000000E+00  0.00000000E+00  0.00000000E+00
  0.00000000E+00  0.00000000E+00  0.00000000E+00
  0.00000000E+00  0.00000000E+00  0.00000000E+00
  0.00000000E+00  0.00000000E+00  0.00000000E+00
  0.00000000E+00  0.00000000E+00  0.00000000E+00
  0.00000000E+00  0.00000000E+00  0.00000000E+00
  0.00000000E+00  0.00000000E+00  0.00000000E+00
  0.00000000E+00  0.00000000E+00  0.00000000E+00
  0.00000000E+00  0.00000000E+00  0.00000000E+00
  0.00000000E+00  0.00000000E+00  0.00000000E+00
  0.00000000E+00  0.00000000E+00  0.00000000E+00
  0.00000000E+00  0.00000000E+00  0.00000000E+00
  0.00000000E+00  0.00000000E+00  0.00000000E+00
  0.00000000E+00  0.00000000E+00  0.00000000E+00
  0.00000000E+00  0.00000000E+00  0.00000000E+00
  0.00000000E+00  0.00000000E+00  0.00000000E+00
  0.00000000E+00  0.00000000E+00  0.00000000E+00
  0.00000000E+00  0.00000000E+00  0.00000000E+00
